200
1000
210
210
209
209
207
207
206
205
205
204
204
204
204
204
202
200
199
198
198
197
196
196
196
196
195
195
195
194
193
192
191
190
189
189
188
188
187
185
185
184
184
184
183
182
182
181
181
180
179
179
179
179
176
176
175
174
174
171
171
171
171
170
170
169
168
167
167
165
163
163
162
160
160
159
158
158
155
154
153
153
152
151
151
150
150
150
149
148
148
148
148
148
146
145
145
145
145
145
144
143
142
141
141
141
141
140
140
140
139
138
138
136
136
136
135
135
135
134
134
134
128
127
127
126
126
125
124
124
124
124
123
121
121
120
120
119
118
118
117
116
116
114
114
114
112
112
112
109
108
106
106
104
104
102
101
100
100
100
99
99
99
98
96
96
93
93
93
93
93
93
92
92
91
91
89
89
87
87
87
87
86
86
84
84
82
81
79
78
78
78
78
77
77
76
76
74
74
73
73
72
